results/res_prop_muc/res_Cimatti_mathsat_cores/QF_RDL/fischer6-mutex-2.smt.smt2.res
unsat
( c10
  c1014
  c1024
  c1034
  c1044
  c1054
  c106
  c1063
  c1072
  c1096
  c11
  c1106
  c1116
  c1126
  c1136
  c1145
  c115
  c1154
  c1178
  c1188
  c1198
  c12
  c1208
  c1218
  c1227
  c1236
  c1259
  c127
  c1270
  c1278
  c1282
  c1286
  c1290
  c1294
  c1298
  c13
  c1302
  c1306
  c1310
  c1314
  c133
  c134
  c137
  c1392
  c1393
  c1394
  c1395
  c1396
  c1397
  c1398
  c1399
  c14
  c140
  c1400
  c1401
  c1403
  c1410
  c1412
  c1416
  c1420
  c1424
  c1428
  c143
  c1432
  c1436
  c1439
  c1443
  c1447
  c1451
  c1455
  c1459
  c146
  c1460
  c1463
  c1464
  c1467
  c1468
  c1471
  c1472
  c1474
  c1480
  c15
  c156
  c16
  c166
  c17
  c176
  c18
  c185
  c19
  c197
  c20
  c209
  c21
  c215
  c216
  c219
  c22
  c222
  c225
  c229
  c238
  c24
  c248
  c258
  c267
  c279
  c291
  c297
  c299
  c301
  c304
  c307
  c311
  c32
  c320
  c330
  c340
  c349
  c361
  c373
  c379
  c380
  c383
  c386
  c389
  c393
  c40
  c402
  c412
  c422
  c431
  c443
  c455
  c461
  c462
  c465
  c468
  c471
  c475
  c48
  c484
  c494
  c504
  c513
  c525
  c537
  c543
  c544
  c547
  c550
  c553
  c557
  c56
  c566
  c577
  c589
  c597
  c6
  c60
  c601
  c613
  c621
  c64
  c67
  c699
  c7
  c701
  c704
  c705
  c707
  c710
  c721
  c725
  c729
  c733
  c737
  c741
  c745
  c749
  c753
  c757
  c76
  c760
  c769
  c779
  c788
  c8
  c808
  c820
  c823
  c826
  c827
  c828
  c830
  c831
  c833
  c834
  c836
  c837
  c839
  c840
  c850
  c86
  c860
  c870
  c880
  c890
  c899
  c9
  c908
  c932
  c942
  c952
  c962
  c972
  c98
  c981
  c990 )
